data;

set A := 543652665 589789380 88590908 562419768 841811270 746023075 256128512 967124973 180463415 546783508 157318313 889468937 47807344 592527655 251060488 160897616 825476863 228702118 285077816 369643491 39576795 88914518 341211613 276411003 19534119 336236853 257605989 304376746 535943790 935832507 145587531 790911519 797691622 13919259 275928913 107389664 44946351 964150913 186628803 703900303 702428179 215009874 149922744 821719206 341729989 599221105 457932370 390246077 730729764 20642678 526910970 269852097 948376182 124437238 360202407 787211068 106779439 675398848 255835157 472861842 471614506 401686300 932712720 765287487 23741419 696414475 170977448 654215451;
param T := 17000000000;

end;
